42665.8
42328.9
42328.9
42070.9
42070.9
42070.9
41716.3
41474.1
41018.3
41018.3
40204.2
40204.2
40204.2
40204.2
40204.2
40204.2
40118.5
40118.5
40118.5
39545.6
39545.6
39545.6
39545.6
39545.6
39545.6
39545.6
39516.4
39516.4
39378.2
39378.2
39376.5
38724.2
38724.2
38724.2
38724.2
38724.2
38724.2
38724.2
38724.2
38724.2
38724.2
38724.2
38352.4
38352.4
38352.4
37816.3
37816.3
37816.3
37816.3
37816.3
37816.3
37784.6
37784.6
37784.6
37748.3
37748.3
37571.6
37571.6
37571.6
37571.6
37571.6
37493.9
37481.9
37481.9
37481.9
37369
37369
37369
37369
37369
37365.4
37328.5
37328.5
37328.5
37294.7
37285.3
37086.7
37086.7
36873.6
36873.6
36873.6
36873.6
36873.6
36642.1
36642.1
36619.8
36619.8
36514.4
36514.4
36514.4
36514.4
36514.4
36514.4
36514.4
36236.1
36236.1
36236.1
36236.1
36236.1
36236.1
